benchmark_str_length/p2_10_12-2.dzn
Alphabet = {A,C,G,T};
ns = 10;
nc = 9;
sl = 10;
neighbours = [| I(A),I(A),I(T),Null,Null,Null,Null,Null,Null | I(C),I(G),I(T),I(A),I(A),I(A),I(T),I(T),I(A) | I(G),I(C),I(C),I(G),I(C),I(T),I(G),I(G),Null | I(T),I(T),I(C),I(A),I(A),Null,Null,Null,Null | I(C),Null,Null,Null,Null,Null,Null,Null,Null | I(T),I(T),I(A),I(A),I(A),I(G),I(C),I(A),I(C) | I(G),I(G),I(G),I(G),I(A),Null,Null,Null,Null | I(A),I(C),I(A),I(T),I(A),I(G),I(C),I(A),Null | I(T),I(A),I(G),I(T),I(T),I(A),I(T),I(G),Null | I(T),I(G),I(C),I(A),I(G),I(A),I(A),I(T),Null |];
